p cnf 348 504
-74 65 -67 95 0
-74 65 -67 -95 0
88 -19 -68 96 0
88 -19 -68 -96 0
-37 8 -51 97 0
-37 8 -51 -97 0
47 -41 88 98 0
47 -41 88 -98 0
-30 32 78 99 0
-30 32 78 -99 0
-88 -47 -41 100 0
-88 -47 -41 -100 0
-56 -42 23 101 0
-56 -42 23 -101 0
29 -24 55 102 0
29 -24 55 -102 0
48 -71 5 103 0
48 -71 5 -103 0
-51 -8 37 104 0
-51 -8 37 -104 0
-82 50 38 105 0
-82 50 38 -105 0
-5 -71 -48 106 0
-5 -71 -48 -106 0
41 20 -33 107 0
41 20 -33 -107 0
81 56 40 108 0
81 56 40 -108 0
-4 11 -52 109 0
-4 11 -52 -109 0
-14 -9 57 110 0
-14 -9 57 -110 0
-2 34 28 111 0
-2 34 28 -111 0
75 92 -57 112 0
75 92 -57 -112 0
-63 20 38 113 0
-63 20 38 -113 0
-80 -33 36 114 0
-80 -33 36 -114 0
-43 -70 -91 115 0
-43 -70 -91 -115 0
-34 26 -18 116 0
-34 26 -18 -116 0
62 -2 71 117 0
62 -2 71 -117 0
-26 18 -34 118 0
-26 18 -34 -118 0
72 65 16 119 0
72 65 16 -119 0
-6 -31 75 120 0
-6 -31 75 -120 0
35 -26 -93 121 0
35 -26 -93 -121 0
-22 46 16 122 0
-22 46 16 -122 0
-93 26 -35 123 0
-93 26 -35 -123 0
-90 13 4 124 0
-90 13 4 -124 0
26 35 93 125 0
26 35 93 -125 0
17 -60 -15 126 0
17 -60 -15 -126 0
49 93 -22 127 0
49 93 -22 -127 0
72 -16 -65 128 0
72 -16 -65 -128 0
-57 9 -14 129 0
-57 9 -14 -129 0
21 59 -84 130 0
21 59 -84 -130 0
74 65 67 131 0
74 65 67 -131 0
74 -67 -65 132 0
74 -67 -65 -132 0
3 81 -1 133 0
3 81 -1 -133 0
-5 79 -12 134 0
-5 79 -12 -134 0
40 -35 -60 135 0
40 -35 -60 -135 0
-65 67 -74 136 0
-65 67 -74 -136 0
-47 92 90 137 0
-47 92 90 -137 0
24 53 46 138 0
24 53 46 -138 0
49 -54 -80 139 0
49 -54 -80 -139 0
-1 94 -66 140 0
-1 94 -66 -140 0
-53 -24 46 141 0
-53 -24 46 -141 0
63 21 64 142 0
63 21 64 -142 0
-78 30 32 143 0
-78 30 32 -143 0
-46 -53 24 144 0
-46 -53 24 -144 0
-17 -60 15 145 0
-17 -60 15 -145 0
-15 -87 -84 146 0
-15 -87 -84 -146 0
56 42 23 147 0
56 42 23 -147 0
-6 85 -86 148 0
-6 85 -86 -148 0
88 41 -47 149 0
88 41 -47 -149 0
-36 82 25 150 0
-36 82 25 -150 0
-64 -83 -53 151 0
-64 -83 -53 -151 0
-63 -21 64 152 0
-63 -21 64 -152 0
80 -49 -54 153 0
80 -49 -54 -153 0
47 -90 92 154 0
47 -90 92 -154 0
91 43 -70 155 0
91 43 -70 -155 0
41 -20 33 156 0
41 -20 33 -156 0
84 -87 15 157 0
84 -87 15 -157 0
1 -94 -66 158 0
1 -94 -66 -158 0
3 -52 -54 159 0
3 -52 -54 -159 0
-85 -13 12 160 0
-85 -13 12 -160 0
10 -27 -76 161 0
10 -27 -76 -161 0
42 70 -29 162 0
42 70 -29 -162 0
-27 -79 -69 163 0
-27 -79 -69 -163 0
-69 79 27 164 0
-69 79 27 -164 0
2 71 -62 165 0
2 71 -62 -165 0
25 30 -44 166 0
25 30 -44 -166 0
19 68 88 167 0
19 68 88 -167 0
55 37 89 168 0
55 37 89 -168 0
-2 -71 -62 169 0
-2 -71 -62 -169 0
-60 -40 35 170 0
-60 -40 35 -170 0
-8 58 86 171 0
-8 58 86 -171 0
-28 -34 -2 172 0
-28 -34 -2 -172 0
31 -6 -75 173 0
31 -6 -75 -173 0
89 7 39 174 0
89 7 39 -174 0
-93 -49 -22 175 0
-93 -49 -22 -175 0
51 -68 91 176 0
51 -68 91 -176 0
15 17 60 177 0
15 17 60 -177 0
14 62 -32 178 0
14 62 -32 -178 0
-7 -89 39 179 0
-7 -89 39 -179 0
-50 -28 -31 180 0
-50 -28 -31 -180 0
68 -91 51 181 0
68 -91 51 -181 0
83 64 -53 182 0
83 64 -53 -182 0
14 -57 -9 183 0
14 -57 -9 -183 0
-61 -44 -19 184 0
-61 -44 -19 -184 0
-45 39 -76 185 0
-45 39 -76 -185 0
-40 -35 60 186 0
-40 -35 60 -186 0
17 94 -87 187 0
17 94 -87 -187 0
-91 -68 -51 188 0
-91 -68 -51 -188 0
44 -19 61 189 0
44 -19 61 -189 0
76 -45 -39 190 0
76 -45 -39 -190 0
-29 -24 -55 191 0
-29 -24 -55 -191 0
74 23 10 192 0
74 23 10 -192 0
31 75 6 193 0
31 75 6 -193 0
-58 86 8 194 0
-58 86 8 -194 0
-47 -92 -90 195 0
-47 -92 -90 -195 0
-31 50 28 196 0
-31 50 28 -196 0
76 -27 -10 197 0
76 -27 -10 -197 0
6 -75 -31 198 0
6 -75 -31 -198 0
-77 -61 67 199 0
-77 -61 67 -199 0
2 -71 62 200 0
2 -71 62 -200 0
7 -18 -43 201 0
7 -18 -43 -201 0
-46 -16 -22 202 0
-46 -16 -22 -202 0
-81 -56 40 203 0
-81 -56 40 -203 0
-86 -58 -8 204 0
-86 -58 -8 -204 0
7 -89 -39 205 0
7 -89 -39 -205 0
-88 -19 68 206 0
-88 -19 68 -206 0
-94 87 17 207 0
-94 87 17 -207 0
-66 58 -78 208 0
-66 58 -78 -208 0
-81 3 1 209 0
-81 3 1 -209 0
14 9 57 210 0
14 9 57 -210 0
59 69 48 211 0
59 69 48 -211 0
-59 69 -48 212 0
-59 69 -48 -212 0
-45 -73 9 213 0
-45 -73 9 -213 0
-27 79 69 214 0
-27 79 69 -214 0
53 64 -83 215 0
53 64 -83 -215 0
-9 -73 45 216 0
-9 -73 45 -216 0
83 -11 217 218 0
83 -11 217 -218 0
83 -11 -217 219 0
83 -11 -217 -219 0
56 -23 -42 220 0
56 -23 -42 -220 0
-25 36 82 221 0
-25 36 82 -221 0
-44 -30 -25 222 0
-44 -30 -25 -222 0
-16 -72 65 223 0
-16 -72 65 -223 0
73 -72 -77 224 0
73 -72 -77 -224 0
62 -14 32 225 0
62 -14 32 -225 0
-15 84 87 226 0
-15 84 87 -226 0
54 -52 -3 227 0
54 -52 -3 -227 0
29 24 -55 228 0
29 24 -55 -228 0
-51 68 91 229 0
-51 68 91 -229 0
-10 27 -76 230 0
-10 27 -76 -230 0
-29 55 24 231 0
-29 55 24 -231 0
-28 50 31 232 0
-28 50 31 -232 0
16 -65 -72 233 0
16 -65 -72 -233 0
26 34 18 234 0
26 34 18 -234 0
-1 -81 -3 235 0
-1 -81 -3 -235 0
2 -34 28 236 0
2 -34 28 -236 0
-80 54 -49 237 0
-80 54 -49 -237 0
54 80 49 238 0
54 80 49 -238 0
48 71 -5 239 0
48 71 -5 -239 0
12 85 13 240 0
12 85 13 -240 0
-46 22 16 241 0
-46 22 16 -241 0
-85 -86 6 242 0
-85 -86 6 -242 0
53 -46 -24 243 0
53 -46 -24 -243 0
-29 -42 -70 244 0
-29 -42 -70 -244 0
25 36 -82 245 0
25 36 -82 -245 0
-21 84 59 246 0
-21 84 59 -246 0
58 -86 8 247 0
58 -86 8 -247 0
-21 -64 63 248 0
-21 -64 63 -248 0
61 -67 -77 249 0
61 -67 -77 -249 0
78 66 58 250 0
78 66 58 -250 0
-13 90 4 251 0
-13 90 4 -251 0
-75 92 57 252 0
-75 92 57 -252 0
63 20 -38 253 0
63 20 -38 -253 0
3 54 52 254 0
3 54 52 -254 0
-82 -50 -38 255 0
-82 -50 -38 -255 0
38 -50 82 256 0
38 -50 82 -256 0
-56 42 -23 257 0
-56 42 -23 -257 0
33 -36 -80 258 0
33 -36 -80 -258 0
51 8 37 259 0
51 8 37 -259 0
84 21 -59 260 0
84 21 -59 -260 0
-92 90 47 261 0
-92 90 47 -261 0
80 -36 -33 262 0
80 -36 -33 -262 0
32 -62 14 263 0
32 -62 14 -263 0
-79 12 -5 264 0
-79 12 -5 -264 0
34 2 -28 265 0
34 2 -28 -265 0
89 -55 -37 266 0
89 -55 -37 -266 0
-40 56 -81 267 0
-40 56 -81 -267 0
-69 -59 48 268 0
-69 -59 48 -268 0
-37 -89 55 269 0
-37 -89 55 -269 0
-7 18 -43 270 0
-7 18 -43 -270 0
-91 70 43 271 0
-91 70 43 -271 0
21 -63 -64 272 0
21 -63 -64 -272 0
93 22 -49 273 0
93 22 -49 -273 0
-13 -12 85 274 0
-13 -12 85 -274 0
-73 -72 77 275 0
-73 -72 77 -275 0
47 -88 41 276 0
47 -88 41 -276 0
72 -73 -77 277 0
72 -73 -77 -277 0
-25 30 44 278 0
-25 30 44 -278 0
42 -70 29 279 0
42 -70 29 -279 0
-26 -35 93 280 0
-26 -35 93 -280 0
-38 -20 -63 281 0
-38 -20 -63 -281 0
-75 -57 -92 282 0
-75 -57 -92 -282 0
74 -10 -23 283 0
74 -10 -23 -283 0
-78 -30 -32 284 0
-78 -30 -32 -284 0
20 33 -41 285 0
20 33 -41 -285 0
-61 19 44 286 0
-61 19 44 -286 0
-45 73 -9 287 0
-45 73 -9 -287 0
-14 -62 -32 288 0
-14 -62 -32 -288 0
-20 63 38 289 0
-20 63 38 -289 0
9 45 73 290 0
9 45 73 -290 0
83 53 -64 291 0
83 53 -64 -291 0
-40 -56 81 292 0
-40 -56 81 -292 0
-48 5 71 293 0
-48 5 71 -293 0
-32 30 78 294 0
-32 30 78 -294 0
10 -23 -74 295 0
10 -23 -74 -295 0
89 -7 -39 296 0
89 -7 -39 -296 0
61 19 -44 297 0
61 19 -44 -297 0
22 -16 46 298 0
22 -16 46 -298 0
-58 -78 66 299 0
-58 -78 66 -299 0
-61 -67 77 300 0
-61 -67 77 -300 0
7 18 43 301 0
7 18 43 -301 0
25 -30 44 302 0
25 -30 44 -302 0
45 76 39 303 0
45 76 39 -303 0
-87 -94 -17 304 0
-87 -94 -17 -304 0
78 -66 -58 305 0
78 -66 -58 -305 0
-92 57 75 306 0
-92 57 75 -306 0
81 -3 1 307 0
81 -3 1 -307 0
22 49 -93 308 0
22 49 -93 -308 0
-11 52 -4 309 0
-11 52 -4 -309 0
67 61 77 310 0
67 61 77 -310 0
43 -7 -18 311 0
43 -7 -18 -311 0
-79 69 27 312 0
-79 69 27 -312 0
-55 37 -89 313 0
-55 37 -89 -313 0
-10 23 -74 314 0
-10 23 -74 -314 0
28 31 -50 315 0
28 31 -50 -315 0
-26 -18 34 316 0
-26 -18 34 -316 0
5 -79 -12 317 0
5 -79 -12 -317 0
77 73 72 318 0
77 73 72 -318 0
86 6 85 319 0
86 6 85 -319 0
52 11 4 320 0
52 11 4 -320 0
-15 60 -17 321 0
-15 60 -17 -321 0
35 40 60 322 0
35 40 60 -322 0
-21 -84 -59 323 0
-21 -84 -59 -323 0
-90 -13 -4 324 0
-90 -13 -4 -324 0
51 -8 -37 325 0
51 -8 -37 -325 0
-39 -76 45 326 0
-39 -76 45 -326 0
10 76 27 327 0
10 76 27 -327 0
-85 13 -12 328 0
-85 13 -12 -328 0
70 -42 29 329 0
70 -42 29 -329 0
-4 90 13 330 0
-4 90 13 -330 0
-68 19 -88 331 0
-68 19 -88 -331 0
-3 -54 52 332 0
-3 -54 52 -332 0
66 94 1 333 0
66 94 1 -333 0
-38 82 50 334 0
-38 82 50 -334 0
70 -43 91 335 0
70 -43 91 -335 0
-11 4 -52 336 0
-11 4 -52 -336 0
66 -94 -1 337 0
66 -94 -1 -337 0
-83 11 338 339 0
-83 11 338 -339 0
-83 11 -338 340 0
-83 11 -338 -340 0
-25 -82 -36 341 0
-25 -82 -36 -341 0
-48 -69 59 342 0
-48 -69 59 -342 0
-6 -85 86 343 0
-6 -85 86 -343 0
87 -84 15 344 0
87 -84 15 -344 0
-33 -20 -41 345 0
-33 -20 -41 -345 0
36 80 33 346 0
36 80 33 -346 0
12 5 79 347 0
12 5 79 -347 0
94 -17 87 348 0
94 -17 87 -348 0

